sat
(
  (define-fun G () String
    "")
  (define-fun I () String
    "")
  (define-fun J () String
    "")
  (define-fun F () String
    "")
  (define-fun K () String
    "aa")
  (define-fun H () String
    "")
)
